% Generated FlatZinc statistics:
%%%mzn-stat: paths=0
%%%mzn-stat: flatBoolVars=311
%%%mzn-stat: flatIntVars=623
%%%mzn-stat: flatIntConstraints=6044
%%%mzn-stat: evaluatedReifiedConstraints=311
%%%mzn-stat: method="minimize"
%%%mzn-stat: flatTime=0.488797
%%%mzn-stat-end

p = [3, 3, 1, 2, 0, 0, 0, 13, 0, 2, 0, 0, 0, 0, 0, 0, 13, 0, 2, 0, 0, 0, 13, 0, 0, 13, 0, 0, 0, 2, 13, 0, 0, 2, 13, 13, 0, 0, 13, 0, 0, 0, 0, 0, 0, 0, 0, 0, 0, 2, 0, 0, 0, 0, 13, 0, 0, 2, 0, 0, 0, 0, 0, 0, 13, 0, 0, 2, 0, 13, 0, 0, 0, 0, 0, 0, 13, 0, 0, 13, 13, 2, 3, 2, 1, 0, 0, 0, 0, 0, 0, 0, 13, 2, 0, 0, 0, 0, 0, 0, 0, 13, 2, 0, 0, 0, 0, 0, 0, 0, 0, 0, 0, 0, 13, 0, 0, 0, 0, 0, 2, 0, 0, 13, 0, 2, 0, 0, 2, 13, 0, 0, 0, 0, 2, 0, 0, 13, 0, 2, 0, 0, 0, 2, 3, 1, 0, 2, 3, 0, 2, 0, 13, 0, 0, 2, 13, 0, 0, 0, 0, 2, 13, 0, 0, 0, 0, 13, 0, 0, 0, 0, 0, 2, 0, 0, 0, 0, 0, 0, 0, 0, 0, 0, 0, 0, 0, 13, 2, 0, 0, 0, 0, 2, 0, 1, 0, 0, 0, 3, 0, 0, 0, 0, 0, 0, 2, 0, 0, 1, 0, 0, 0, 0, 0, 3, 0, 0, 0, 0, 0, 2, 0, 0, 0, 0, 13, 0, 0, 0, 0, 0, 0, 0, 0, 0, 0, 0, 3, 0, 1, 0, 0, 2, 0, 0, 0, 0, 0, 0, 0, 0, 0, 3, 1, 0, 0, 0, 0, 0, 0, 3, 1, 2, 0, 0, 0, 0, 0, 0, 0, 3, 0, 1, 2, 0, 0, 0, 0, 0, 0, 0, 0, 0, 0, 0, 0, 0, 0, 0, 0, 0, 2, 1, 0, 0, 3, 0, 0, 0, 1, 2, 3, 3, 3, 1, 3, 2, 13, 0, 13];
objective = 27390;
----------
==========
%%%mzn-stat: objective=27390
%%%mzn-stat: objectiveBound=27390
%%%mzn-stat: boolVariables=943
%%%mzn-stat: failures=3205
%%%mzn-stat: propagations=532194
%%%mzn-stat: solveTime=9.36396
%%%mzn-stat: nSolutions=1
%%%mzn-stat-end
